% ----DATA VARIABLES----

t=10;%number of attributes
k=5;%max length of the support set
n=10;%number of positive instances
m=10;%number of negative instances
c=1;%number of atMostOne Constraints

% ----OMEGAS----

omegap= [| 1, 1, 1, 1, 0, 1, 0, 1, 0, 0|
 1, 0, 0, 1, 1, 0, 0, 0, 1, 1|
 1, 0, 0, 1, 1, 1, 0, 1, 1, 1|
 1, 0, 0, 0, 1, 1, 0, 0, 1, 1|
 0, 1, 0, 0, 0, 0, 0, 1, 1, 1|
 1, 1, 0, 0, 0, 0, 1, 0, 0, 1|
 0, 0, 1, 1, 1, 1, 1, 1, 1, 0|
 1, 1, 1, 0, 1, 1, 1, 1, 1, 0|
 0, 1, 1, 0, 0, 1, 1, 1, 1, 1|
 1, 0, 0, 1, 0, 1, 1, 1, 0, 1|
];

omegan= [| 1, 1, 0, 1, 0, 0, 1, 1, 1, 1|
 0, 1, 1, 1, 1, 0, 1, 0, 1, 1|
 0, 0, 1, 0, 1, 0, 0, 0, 0, 1|
 0, 0, 1, 0, 0, 0, 1, 1, 0, 0|
 0, 1, 0, 0, 1, 0, 0, 1, 0, 0|
 1, 0, 0, 1, 0, 1, 0, 1, 1, 1|
 0, 1, 1, 1, 0, 1, 1, 0, 1, 0|
 1, 1, 0, 1, 1, 1, 0, 1, 1, 1|
 1, 0, 1, 1, 0, 1, 0, 1, 1, 1|
 1, 1, 0, 0, 1, 0, 1, 1, 1, 1|
];

% ----CONSTRAINS----

atMostOne=[{7}];